set NODES := A B C D E F;
set ARCS :=
A B
A  C
B  C
B  D
B  E
C  E
D  E
D  F
E  F;
param: supply demand :=
A 100 0
B 50 0
C 0 0 
D 0 0
E 0 30
F 0 120;
param cost :=
A  B 13
A  C 12
B  C 1
B  D 6
B  E 9
C  E 7
D  E 4
D  F 13
E  F 12;